10	5
0	2	1	2
1	1	5
2	3	3	8	9
3	2	4	1
4	3	6	7	10
5	1	9
6	1	11
7	1	11
8	1	11
9	1	11
10	1	11
11	0
0	0	0	0	0	0	0
1	6	0	0	3	0	1
2	5	0	5	0	1	0
3	2	4	0	0	0	5
4	3	0	0	0	0	1
5	7	4	0	0	0	0
6	10	0	4	3	1	1
7	7	3	2	4	0	5
8	3	4	2	0	3	4
9	4	0	0	1	0	0
10	7	4	5	0	3	3
11	0	0	0	0	0	0
4	5	5	5	5
